33D32945 STP File, STP Format Version 1.0

SECTION Comment
Name    "cc9-2u"
Creator "stpsolver"
Problem "Prize-Collecting Steiner Problem in Graphs"
END

SECTION Graph
Nodes 512
Edges 2304
E 2 1 1
E 3 1 1
E 4 2 1
E 4 3 1
E 5 1 1
E 6 2 1
E 6 5 1
E 7 3 1
E 7 5 1
E 8 4 1
E 8 6 1
E 8 7 1
E 9 1 1
E 10 2 1
E 10 9 1
E 11 3 1
E 11 9 1
E 12 4 1
E 12 10 1
E 12 11 1
E 13 5 1
E 13 9 1
E 14 6 1
E 14 10 1
E 14 13 1
E 15 7 1
E 15 11 1
E 15 13 1
E 16 8 1
E 16 12 1
E 16 14 1
E 16 15 1
E 17 1 1
E 18 2 1
E 18 17 1
E 19 3 1
E 19 17 1
E 20 4 1
E 20 18 1
E 20 19 1
E 21 5 1
E 21 17 1
E 22 6 1
E 22 18 1
E 22 21 1
E 23 7 1
E 23 19 1
E 23 21 1
E 24 8 1
E 24 20 1
E 24 22 1
E 24 23 1
E 25 9 1
E 25 17 1
E 26 10 1
E 26 18 1
E 26 25 1
E 27 11 1
E 27 19 1
E 27 25 1
E 28 12 1
E 28 20 1
E 28 26 1
E 28 27 1
E 29 13 1
E 29 21 1
E 29 25 1
E 30 14 1
E 30 22 1
E 30 26 1
E 30 29 1
E 31 15 1
E 31 23 1
E 31 27 1
E 31 29 1
E 32 16 1
E 32 24 1
E 32 28 1
E 32 30 1
E 32 31 1
E 33 1 1
E 34 2 1
E 34 33 1
E 35 3 1
E 35 33 1
E 36 4 1
E 36 34 1
E 36 35 1
E 37 5 1
E 37 33 1
E 38 6 1
E 38 34 1
E 38 37 1
E 39 7 1
E 39 35 1
E 39 37 1
E 40 8 1
E 40 36 1
E 40 38 1
E 40 39 1
E 41 9 1
E 41 33 1
E 42 10 1
E 42 34 1
E 42 41 1
E 43 11 1
E 43 35 1
E 43 41 1
E 44 12 1
E 44 36 1
E 44 42 1
E 44 43 1
E 45 13 1
E 45 37 1
E 45 41 1
E 46 14 1
E 46 38 1
E 46 42 1
E 46 45 1
E 47 15 1
E 47 39 1
E 47 43 1
E 47 45 1
E 48 16 1
E 48 40 1
E 48 44 1
E 48 46 1
E 48 47 1
E 49 17 1
E 49 33 1
E 50 18 1
E 50 34 1
E 50 49 1
E 51 19 1
E 51 35 1
E 51 49 1
E 52 20 1
E 52 36 1
E 52 50 1
E 52 51 1
E 53 21 1
E 53 37 1
E 53 49 1
E 54 22 1
E 54 38 1
E 54 50 1
E 54 53 1
E 55 23 1
E 55 39 1
E 55 51 1
E 55 53 1
E 56 24 1
E 56 40 1
E 56 52 1
E 56 54 1
E 56 55 1
E 57 25 1
E 57 41 1
E 57 49 1
E 58 26 1
E 58 42 1
E 58 50 1
E 58 57 1
E 59 27 1
E 59 43 1
E 59 51 1
E 59 57 1
E 60 28 1
E 60 44 1
E 60 52 1
E 60 58 1
E 60 59 1
E 61 29 1
E 61 45 1
E 61 53 1
E 61 57 1
E 62 30 1
E 62 46 1
E 62 54 1
E 62 58 1
E 62 61 1
E 63 31 1
E 63 47 1
E 63 55 1
E 63 59 1
E 63 61 1
E 64 32 1
E 64 48 1
E 64 56 1
E 64 60 1
E 64 62 1
E 64 63 1
E 65 1 1
E 66 2 1
E 66 65 1
E 67 3 1
E 67 65 1
E 68 4 1
E 68 66 1
E 68 67 1
E 69 5 1
E 69 65 1
E 70 6 1
E 70 66 1
E 70 69 1
E 71 7 1
E 71 67 1
E 71 69 1
E 72 8 1
E 72 68 1
E 72 70 1
E 72 71 1
E 73 9 1
E 73 65 1
E 74 10 1
E 74 66 1
E 74 73 1
E 75 11 1
E 75 67 1
E 75 73 1
E 76 12 1
E 76 68 1
E 76 74 1
E 76 75 1
E 77 13 1
E 77 69 1
E 77 73 1
E 78 14 1
E 78 70 1
E 78 74 1
E 78 77 1
E 79 15 1
E 79 71 1
E 79 75 1
E 79 77 1
E 80 16 1
E 80 72 1
E 80 76 1
E 80 78 1
E 80 79 1
E 81 17 1
E 81 65 1
E 82 18 1
E 82 66 1
E 82 81 1
E 83 19 1
E 83 67 1
E 83 81 1
E 84 20 1
E 84 68 1
E 84 82 1
E 84 83 1
E 85 21 1
E 85 69 1
E 85 81 1
E 86 22 1
E 86 70 1
E 86 82 1
E 86 85 1
E 87 23 1
E 87 71 1
E 87 83 1
E 87 85 1
E 88 24 1
E 88 72 1
E 88 84 1
E 88 86 1
E 88 87 1
E 89 25 1
E 89 73 1
E 89 81 1
E 90 26 1
E 90 74 1
E 90 82 1
E 90 89 1
E 91 27 1
E 91 75 1
E 91 83 1
E 91 89 1
E 92 28 1
E 92 76 1
E 92 84 1
E 92 90 1
E 92 91 1
E 93 29 1
E 93 77 1
E 93 85 1
E 93 89 1
E 94 30 1
E 94 78 1
E 94 86 1
E 94 90 1
E 94 93 1
E 95 31 1
E 95 79 1
E 95 87 1
E 95 91 1
E 95 93 1
E 96 32 1
E 96 80 1
E 96 88 1
E 96 92 1
E 96 94 1
E 96 95 1
E 97 33 1
E 97 65 1
E 98 34 1
E 98 66 1
E 98 97 1
E 99 35 1
E 99 67 1
E 99 97 1
E 100 36 1
E 100 68 1
E 100 98 1
E 100 99 1
E 101 37 1
E 101 69 1
E 101 97 1
E 102 38 1
E 102 70 1
E 102 98 1
E 102 101 1
E 103 39 1
E 103 71 1
E 103 99 1
E 103 101 1
E 104 40 1
E 104 72 1
E 104 100 1
E 104 102 1
E 104 103 1
E 105 41 1
E 105 73 1
E 105 97 1
E 106 42 1
E 106 74 1
E 106 98 1
E 106 105 1
E 107 43 1
E 107 75 1
E 107 99 1
E 107 105 1
E 108 44 1
E 108 76 1
E 108 100 1
E 108 106 1
E 108 107 1
E 109 45 1
E 109 77 1
E 109 101 1
E 109 105 1
E 110 46 1
E 110 78 1
E 110 102 1
E 110 106 1
E 110 109 1
E 111 47 1
E 111 79 1
E 111 103 1
E 111 107 1
E 111 109 1
E 112 48 1
E 112 80 1
E 112 104 1
E 112 108 1
E 112 110 1
E 112 111 1
E 113 49 1
E 113 81 1
E 113 97 1
E 114 50 1
E 114 82 1
E 114 98 1
E 114 113 1
E 115 51 1
E 115 83 1
E 115 99 1
E 115 113 1
E 116 52 1
E 116 84 1
E 116 100 1
E 116 114 1
E 116 115 1
E 117 53 1
E 117 85 1
E 117 101 1
E 117 113 1
E 118 54 1
E 118 86 1
E 118 102 1
E 118 114 1
E 118 117 1
E 119 55 1
E 119 87 1
E 119 103 1
E 119 115 1
E 119 117 1
E 120 56 1
E 120 88 1
E 120 104 1
E 120 116 1
E 120 118 1
E 120 119 1
E 121 57 1
E 121 89 1
E 121 105 1
E 121 113 1
E 122 58 1
E 122 90 1
E 122 106 1
E 122 114 1
E 122 121 1
E 123 59 1
E 123 91 1
E 123 107 1
E 123 115 1
E 123 121 1
E 124 60 1
E 124 92 1
E 124 108 1
E 124 116 1
E 124 122 1
E 124 123 1
E 125 61 1
E 125 93 1
E 125 109 1
E 125 117 1
E 125 121 1
E 126 62 1
E 126 94 1
E 126 110 1
E 126 118 1
E 126 122 1
E 126 125 1
E 127 63 1
E 127 95 1
E 127 111 1
E 127 119 1
E 127 123 1
E 127 125 1
E 128 64 1
E 128 96 1
E 128 112 1
E 128 120 1
E 128 124 1
E 128 126 1
E 128 127 1
E 129 1 1
E 130 2 1
E 130 129 1
E 131 3 1
E 131 129 1
E 132 4 1
E 132 130 1
E 132 131 1
E 133 5 1
E 133 129 1
E 134 6 1
E 134 130 1
E 134 133 1
E 135 7 1
E 135 131 1
E 135 133 1
E 136 8 1
E 136 132 1
E 136 134 1
E 136 135 1
E 137 9 1
E 137 129 1
E 138 10 1
E 138 130 1
E 138 137 1
E 139 11 1
E 139 131 1
E 139 137 1
E 140 12 1
E 140 132 1
E 140 138 1
E 140 139 1
E 141 13 1
E 141 133 1
E 141 137 1
E 142 14 1
E 142 134 1
E 142 138 1
E 142 141 1
E 143 15 1
E 143 135 1
E 143 139 1
E 143 141 1
E 144 16 1
E 144 136 1
E 144 140 1
E 144 142 1
E 144 143 1
E 145 17 1
E 145 129 1
E 146 18 1
E 146 130 1
E 146 145 1
E 147 19 1
E 147 131 1
E 147 145 1
E 148 20 1
E 148 132 1
E 148 146 1
E 148 147 1
E 149 21 1
E 149 133 1
E 149 145 1
E 150 22 1
E 150 134 1
E 150 146 1
E 150 149 1
E 151 23 1
E 151 135 1
E 151 147 1
E 151 149 1
E 152 24 1
E 152 136 1
E 152 148 1
E 152 150 1
E 152 151 1
E 153 25 1
E 153 137 1
E 153 145 1
E 154 26 1
E 154 138 1
E 154 146 1
E 154 153 1
E 155 27 1
E 155 139 1
E 155 147 1
E 155 153 1
E 156 28 1
E 156 140 1
E 156 148 1
E 156 154 1
E 156 155 1
E 157 29 1
E 157 141 1
E 157 149 1
E 157 153 1
E 158 30 1
E 158 142 1
E 158 150 1
E 158 154 1
E 158 157 1
E 159 31 1
E 159 143 1
E 159 151 1
E 159 155 1
E 159 157 1
E 160 32 1
E 160 144 1
E 160 152 1
E 160 156 1
E 160 158 1
E 160 159 1
E 161 33 1
E 161 129 1
E 162 34 1
E 162 130 1
E 162 161 1
E 163 35 1
E 163 131 1
E 163 161 1
E 164 36 1
E 164 132 1
E 164 162 1
E 164 163 1
E 165 37 1
E 165 133 1
E 165 161 1
E 166 38 1
E 166 134 1
E 166 162 1
E 166 165 1
E 167 39 1
E 167 135 1
E 167 163 1
E 167 165 1
E 168 40 1
E 168 136 1
E 168 164 1
E 168 166 1
E 168 167 1
E 169 41 1
E 169 137 1
E 169 161 1
E 170 42 1
E 170 138 1
E 170 162 1
E 170 169 1
E 171 43 1
E 171 139 1
E 171 163 1
E 171 169 1
E 172 44 1
E 172 140 1
E 172 164 1
E 172 170 1
E 172 171 1
E 173 45 1
E 173 141 1
E 173 165 1
E 173 169 1
E 174 46 1
E 174 142 1
E 174 166 1
E 174 170 1
E 174 173 1
E 175 47 1
E 175 143 1
E 175 167 1
E 175 171 1
E 175 173 1
E 176 48 1
E 176 144 1
E 176 168 1
E 176 172 1
E 176 174 1
E 176 175 1
E 177 49 1
E 177 145 1
E 177 161 1
E 178 50 1
E 178 146 1
E 178 162 1
E 178 177 1
E 179 51 1
E 179 147 1
E 179 163 1
E 179 177 1
E 180 52 1
E 180 148 1
E 180 164 1
E 180 178 1
E 180 179 1
E 181 53 1
E 181 149 1
E 181 165 1
E 181 177 1
E 182 54 1
E 182 150 1
E 182 166 1
E 182 178 1
E 182 181 1
E 183 55 1
E 183 151 1
E 183 167 1
E 183 179 1
E 183 181 1
E 184 56 1
E 184 152 1
E 184 168 1
E 184 180 1
E 184 182 1
E 184 183 1
E 185 57 1
E 185 153 1
E 185 169 1
E 185 177 1
E 186 58 1
E 186 154 1
E 186 170 1
E 186 178 1
E 186 185 1
E 187 59 1
E 187 155 1
E 187 171 1
E 187 179 1
E 187 185 1
E 188 60 1
E 188 156 1
E 188 172 1
E 188 180 1
E 188 186 1
E 188 187 1
E 189 61 1
E 189 157 1
E 189 173 1
E 189 181 1
E 189 185 1
E 190 62 1
E 190 158 1
E 190 174 1
E 190 182 1
E 190 186 1
E 190 189 1
E 191 63 1
E 191 159 1
E 191 175 1
E 191 183 1
E 191 187 1
E 191 189 1
E 192 64 1
E 192 160 1
E 192 176 1
E 192 184 1
E 192 188 1
E 192 190 1
E 192 191 1
E 193 65 1
E 193 129 1
E 194 66 1
E 194 130 1
E 194 193 1
E 195 67 1
E 195 131 1
E 195 193 1
E 196 68 1
E 196 132 1
E 196 194 1
E 196 195 1
E 197 69 1
E 197 133 1
E 197 193 1
E 198 70 1
E 198 134 1
E 198 194 1
E 198 197 1
E 199 71 1
E 199 135 1
E 199 195 1
E 199 197 1
E 200 72 1
E 200 136 1
E 200 196 1
E 200 198 1
E 200 199 1
E 201 73 1
E 201 137 1
E 201 193 1
E 202 74 1
E 202 138 1
E 202 194 1
E 202 201 1
E 203 75 1
E 203 139 1
E 203 195 1
E 203 201 1
E 204 76 1
E 204 140 1
E 204 196 1
E 204 202 1
E 204 203 1
E 205 77 1
E 205 141 1
E 205 197 1
E 205 201 1
E 206 78 1
E 206 142 1
E 206 198 1
E 206 202 1
E 206 205 1
E 207 79 1
E 207 143 1
E 207 199 1
E 207 203 1
E 207 205 1
E 208 80 1
E 208 144 1
E 208 200 1
E 208 204 1
E 208 206 1
E 208 207 1
E 209 81 1
E 209 145 1
E 209 193 1
E 210 82 1
E 210 146 1
E 210 194 1
E 210 209 1
E 211 83 1
E 211 147 1
E 211 195 1
E 211 209 1
E 212 84 1
E 212 148 1
E 212 196 1
E 212 210 1
E 212 211 1
E 213 85 1
E 213 149 1
E 213 197 1
E 213 209 1
E 214 86 1
E 214 150 1
E 214 198 1
E 214 210 1
E 214 213 1
E 215 87 1
E 215 151 1
E 215 199 1
E 215 211 1
E 215 213 1
E 216 88 1
E 216 152 1
E 216 200 1
E 216 212 1
E 216 214 1
E 216 215 1
E 217 89 1
E 217 153 1
E 217 201 1
E 217 209 1
E 218 90 1
E 218 154 1
E 218 202 1
E 218 210 1
E 218 217 1
E 219 91 1
E 219 155 1
E 219 203 1
E 219 211 1
E 219 217 1
E 220 92 1
E 220 156 1
E 220 204 1
E 220 212 1
E 220 218 1
E 220 219 1
E 221 93 1
E 221 157 1
E 221 205 1
E 221 213 1
E 221 217 1
E 222 94 1
E 222 158 1
E 222 206 1
E 222 214 1
E 222 218 1
E 222 221 1
E 223 95 1
E 223 159 1
E 223 207 1
E 223 215 1
E 223 219 1
E 223 221 1
E 224 96 1
E 224 160 1
E 224 208 1
E 224 216 1
E 224 220 1
E 224 222 1
E 224 223 1
E 225 97 1
E 225 161 1
E 225 193 1
E 226 98 1
E 226 162 1
E 226 194 1
E 226 225 1
E 227 99 1
E 227 163 1
E 227 195 1
E 227 225 1
E 228 100 1
E 228 164 1
E 228 196 1
E 228 226 1
E 228 227 1
E 229 101 1
E 229 165 1
E 229 197 1
E 229 225 1
E 230 102 1
E 230 166 1
E 230 198 1
E 230 226 1
E 230 229 1
E 231 103 1
E 231 167 1
E 231 199 1
E 231 227 1
E 231 229 1
E 232 104 1
E 232 168 1
E 232 200 1
E 232 228 1
E 232 230 1
E 232 231 1
E 233 105 1
E 233 169 1
E 233 201 1
E 233 225 1
E 234 106 1
E 234 170 1
E 234 202 1
E 234 226 1
E 234 233 1
E 235 107 1
E 235 171 1
E 235 203 1
E 235 227 1
E 235 233 1
E 236 108 1
E 236 172 1
E 236 204 1
E 236 228 1
E 236 234 1
E 236 235 1
E 237 109 1
E 237 173 1
E 237 205 1
E 237 229 1
E 237 233 1
E 238 110 1
E 238 174 1
E 238 206 1
E 238 230 1
E 238 234 1
E 238 237 1
E 239 111 1
E 239 175 1
E 239 207 1
E 239 231 1
E 239 235 1
E 239 237 1
E 240 112 1
E 240 176 1
E 240 208 1
E 240 232 1
E 240 236 1
E 240 238 1
E 240 239 1
E 241 113 1
E 241 177 1
E 241 209 1
E 241 225 1
E 242 114 1
E 242 178 1
E 242 210 1
E 242 226 1
E 242 241 1
E 243 115 1
E 243 179 1
E 243 211 1
E 243 227 1
E 243 241 1
E 244 116 1
E 244 180 1
E 244 212 1
E 244 228 1
E 244 242 1
E 244 243 1
E 245 117 1
E 245 181 1
E 245 213 1
E 245 229 1
E 245 241 1
E 246 118 1
E 246 182 1
E 246 214 1
E 246 230 1
E 246 242 1
E 246 245 1
E 247 119 1
E 247 183 1
E 247 215 1
E 247 231 1
E 247 243 1
E 247 245 1
E 248 120 1
E 248 184 1
E 248 216 1
E 248 232 1
E 248 244 1
E 248 246 1
E 248 247 1
E 249 121 1
E 249 185 1
E 249 217 1
E 249 233 1
E 249 241 1
E 250 122 1
E 250 186 1
E 250 218 1
E 250 234 1
E 250 242 1
E 250 249 1
E 251 123 1
E 251 187 1
E 251 219 1
E 251 235 1
E 251 243 1
E 251 249 1
E 252 124 1
E 252 188 1
E 252 220 1
E 252 236 1
E 252 244 1
E 252 250 1
E 252 251 1
E 253 125 1
E 253 189 1
E 253 221 1
E 253 237 1
E 253 245 1
E 253 249 1
E 254 126 1
E 254 190 1
E 254 222 1
E 254 238 1
E 254 246 1
E 254 250 1
E 254 253 1
E 255 127 1
E 255 191 1
E 255 223 1
E 255 239 1
E 255 247 1
E 255 251 1
E 255 253 1
E 256 128 1
E 256 192 1
E 256 224 1
E 256 240 1
E 256 248 1
E 256 252 1
E 256 254 1
E 256 255 1
E 257 1 1
E 258 2 1
E 258 257 1
E 259 3 1
E 259 257 1
E 260 4 1
E 260 258 1
E 260 259 1
E 261 5 1
E 261 257 1
E 262 6 1
E 262 258 1
E 262 261 1
E 263 7 1
E 263 259 1
E 263 261 1
E 264 8 1
E 264 260 1
E 264 262 1
E 264 263 1
E 265 9 1
E 265 257 1
E 266 10 1
E 266 258 1
E 266 265 1
E 267 11 1
E 267 259 1
E 267 265 1
E 268 12 1
E 268 260 1
E 268 266 1
E 268 267 1
E 269 13 1
E 269 261 1
E 269 265 1
E 270 14 1
E 270 262 1
E 270 266 1
E 270 269 1
E 271 15 1
E 271 263 1
E 271 267 1
E 271 269 1
E 272 16 1
E 272 264 1
E 272 268 1
E 272 270 1
E 272 271 1
E 273 17 1
E 273 257 1
E 274 18 1
E 274 258 1
E 274 273 1
E 275 19 1
E 275 259 1
E 275 273 1
E 276 20 1
E 276 260 1
E 276 274 1
E 276 275 1
E 277 21 1
E 277 261 1
E 277 273 1
E 278 22 1
E 278 262 1
E 278 274 1
E 278 277 1
E 279 23 1
E 279 263 1
E 279 275 1
E 279 277 1
E 280 24 1
E 280 264 1
E 280 276 1
E 280 278 1
E 280 279 1
E 281 25 1
E 281 265 1
E 281 273 1
E 282 26 1
E 282 266 1
E 282 274 1
E 282 281 1
E 283 27 1
E 283 267 1
E 283 275 1
E 283 281 1
E 284 28 1
E 284 268 1
E 284 276 1
E 284 282 1
E 284 283 1
E 285 29 1
E 285 269 1
E 285 277 1
E 285 281 1
E 286 30 1
E 286 270 1
E 286 278 1
E 286 282 1
E 286 285 1
E 287 31 1
E 287 271 1
E 287 279 1
E 287 283 1
E 287 285 1
E 288 32 1
E 288 272 1
E 288 280 1
E 288 284 1
E 288 286 1
E 288 287 1
E 289 33 1
E 289 257 1
E 290 34 1
E 290 258 1
E 290 289 1
E 291 35 1
E 291 259 1
E 291 289 1
E 292 36 1
E 292 260 1
E 292 290 1
E 292 291 1
E 293 37 1
E 293 261 1
E 293 289 1
E 294 38 1
E 294 262 1
E 294 290 1
E 294 293 1
E 295 39 1
E 295 263 1
E 295 291 1
E 295 293 1
E 296 40 1
E 296 264 1
E 296 292 1
E 296 294 1
E 296 295 1
E 297 41 1
E 297 265 1
E 297 289 1
E 298 42 1
E 298 266 1
E 298 290 1
E 298 297 1
E 299 43 1
E 299 267 1
E 299 291 1
E 299 297 1
E 300 44 1
E 300 268 1
E 300 292 1
E 300 298 1
E 300 299 1
E 301 45 1
E 301 269 1
E 301 293 1
E 301 297 1
E 302 46 1
E 302 270 1
E 302 294 1
E 302 298 1
E 302 301 1
E 303 47 1
E 303 271 1
E 303 295 1
E 303 299 1
E 303 301 1
E 304 48 1
E 304 272 1
E 304 296 1
E 304 300 1
E 304 302 1
E 304 303 1
E 305 49 1
E 305 273 1
E 305 289 1
E 306 50 1
E 306 274 1
E 306 290 1
E 306 305 1
E 307 51 1
E 307 275 1
E 307 291 1
E 307 305 1
E 308 52 1
E 308 276 1
E 308 292 1
E 308 306 1
E 308 307 1
E 309 53 1
E 309 277 1
E 309 293 1
E 309 305 1
E 310 54 1
E 310 278 1
E 310 294 1
E 310 306 1
E 310 309 1
E 311 55 1
E 311 279 1
E 311 295 1
E 311 307 1
E 311 309 1
E 312 56 1
E 312 280 1
E 312 296 1
E 312 308 1
E 312 310 1
E 312 311 1
E 313 57 1
E 313 281 1
E 313 297 1
E 313 305 1
E 314 58 1
E 314 282 1
E 314 298 1
E 314 306 1
E 314 313 1
E 315 59 1
E 315 283 1
E 315 299 1
E 315 307 1
E 315 313 1
E 316 60 1
E 316 284 1
E 316 300 1
E 316 308 1
E 316 314 1
E 316 315 1
E 317 61 1
E 317 285 1
E 317 301 1
E 317 309 1
E 317 313 1
E 318 62 1
E 318 286 1
E 318 302 1
E 318 310 1
E 318 314 1
E 318 317 1
E 319 63 1
E 319 287 1
E 319 303 1
E 319 311 1
E 319 315 1
E 319 317 1
E 320 64 1
E 320 288 1
E 320 304 1
E 320 312 1
E 320 316 1
E 320 318 1
E 320 319 1
E 321 65 1
E 321 257 1
E 322 66 1
E 322 258 1
E 322 321 1
E 323 67 1
E 323 259 1
E 323 321 1
E 324 68 1
E 324 260 1
E 324 322 1
E 324 323 1
E 325 69 1
E 325 261 1
E 325 321 1
E 326 70 1
E 326 262 1
E 326 322 1
E 326 325 1
E 327 71 1
E 327 263 1
E 327 323 1
E 327 325 1
E 328 72 1
E 328 264 1
E 328 324 1
E 328 326 1
E 328 327 1
E 329 73 1
E 329 265 1
E 329 321 1
E 330 74 1
E 330 266 1
E 330 322 1
E 330 329 1
E 331 75 1
E 331 267 1
E 331 323 1
E 331 329 1
E 332 76 1
E 332 268 1
E 332 324 1
E 332 330 1
E 332 331 1
E 333 77 1
E 333 269 1
E 333 325 1
E 333 329 1
E 334 78 1
E 334 270 1
E 334 326 1
E 334 330 1
E 334 333 1
E 335 79 1
E 335 271 1
E 335 327 1
E 335 331 1
E 335 333 1
E 336 80 1
E 336 272 1
E 336 328 1
E 336 332 1
E 336 334 1
E 336 335 1
E 337 81 1
E 337 273 1
E 337 321 1
E 338 82 1
E 338 274 1
E 338 322 1
E 338 337 1
E 339 83 1
E 339 275 1
E 339 323 1
E 339 337 1
E 340 84 1
E 340 276 1
E 340 324 1
E 340 338 1
E 340 339 1
E 341 85 1
E 341 277 1
E 341 325 1
E 341 337 1
E 342 86 1
E 342 278 1
E 342 326 1
E 342 338 1
E 342 341 1
E 343 87 1
E 343 279 1
E 343 327 1
E 343 339 1
E 343 341 1
E 344 88 1
E 344 280 1
E 344 328 1
E 344 340 1
E 344 342 1
E 344 343 1
E 345 89 1
E 345 281 1
E 345 329 1
E 345 337 1
E 346 90 1
E 346 282 1
E 346 330 1
E 346 338 1
E 346 345 1
E 347 91 1
E 347 283 1
E 347 331 1
E 347 339 1
E 347 345 1
E 348 92 1
E 348 284 1
E 348 332 1
E 348 340 1
E 348 346 1
E 348 347 1
E 349 93 1
E 349 285 1
E 349 333 1
E 349 341 1
E 349 345 1
E 350 94 1
E 350 286 1
E 350 334 1
E 350 342 1
E 350 346 1
E 350 349 1
E 351 95 1
E 351 287 1
E 351 335 1
E 351 343 1
E 351 347 1
E 351 349 1
E 352 96 1
E 352 288 1
E 352 336 1
E 352 344 1
E 352 348 1
E 352 350 1
E 352 351 1
E 353 97 1
E 353 289 1
E 353 321 1
E 354 98 1
E 354 290 1
E 354 322 1
E 354 353 1
E 355 99 1
E 355 291 1
E 355 323 1
E 355 353 1
E 356 100 1
E 356 292 1
E 356 324 1
E 356 354 1
E 356 355 1
E 357 101 1
E 357 293 1
E 357 325 1
E 357 353 1
E 358 102 1
E 358 294 1
E 358 326 1
E 358 354 1
E 358 357 1
E 359 103 1
E 359 295 1
E 359 327 1
E 359 355 1
E 359 357 1
E 360 104 1
E 360 296 1
E 360 328 1
E 360 356 1
E 360 358 1
E 360 359 1
E 361 105 1
E 361 297 1
E 361 329 1
E 361 353 1
E 362 106 1
E 362 298 1
E 362 330 1
E 362 354 1
E 362 361 1
E 363 107 1
E 363 299 1
E 363 331 1
E 363 355 1
E 363 361 1
E 364 108 1
E 364 300 1
E 364 332 1
E 364 356 1
E 364 362 1
E 364 363 1
E 365 109 1
E 365 301 1
E 365 333 1
E 365 357 1
E 365 361 1
E 366 110 1
E 366 302 1
E 366 334 1
E 366 358 1
E 366 362 1
E 366 365 1
E 367 111 1
E 367 303 1
E 367 335 1
E 367 359 1
E 367 363 1
E 367 365 1
E 368 112 1
E 368 304 1
E 368 336 1
E 368 360 1
E 368 364 1
E 368 366 1
E 368 367 1
E 369 113 1
E 369 305 1
E 369 337 1
E 369 353 1
E 370 114 1
E 370 306 1
E 370 338 1
E 370 354 1
E 370 369 1
E 371 115 1
E 371 307 1
E 371 339 1
E 371 355 1
E 371 369 1
E 372 116 1
E 372 308 1
E 372 340 1
E 372 356 1
E 372 370 1
E 372 371 1
E 373 117 1
E 373 309 1
E 373 341 1
E 373 357 1
E 373 369 1
E 374 118 1
E 374 310 1
E 374 342 1
E 374 358 1
E 374 370 1
E 374 373 1
E 375 119 1
E 375 311 1
E 375 343 1
E 375 359 1
E 375 371 1
E 375 373 1
E 376 120 1
E 376 312 1
E 376 344 1
E 376 360 1
E 376 372 1
E 376 374 1
E 376 375 1
E 377 121 1
E 377 313 1
E 377 345 1
E 377 361 1
E 377 369 1
E 378 122 1
E 378 314 1
E 378 346 1
E 378 362 1
E 378 370 1
E 378 377 1
E 379 123 1
E 379 315 1
E 379 347 1
E 379 363 1
E 379 371 1
E 379 377 1
E 380 124 1
E 380 316 1
E 380 348 1
E 380 364 1
E 380 372 1
E 380 378 1
E 380 379 1
E 381 125 1
E 381 317 1
E 381 349 1
E 381 365 1
E 381 373 1
E 381 377 1
E 382 126 1
E 382 318 1
E 382 350 1
E 382 366 1
E 382 374 1
E 382 378 1
E 382 381 1
E 383 127 1
E 383 319 1
E 383 351 1
E 383 367 1
E 383 375 1
E 383 379 1
E 383 381 1
E 384 128 1
E 384 320 1
E 384 352 1
E 384 368 1
E 384 376 1
E 384 380 1
E 384 382 1
E 384 383 1
E 385 129 1
E 385 257 1
E 386 130 1
E 386 258 1
E 386 385 1
E 387 131 1
E 387 259 1
E 387 385 1
E 388 132 1
E 388 260 1
E 388 386 1
E 388 387 1
E 389 133 1
E 389 261 1
E 389 385 1
E 390 134 1
E 390 262 1
E 390 386 1
E 390 389 1
E 391 135 1
E 391 263 1
E 391 387 1
E 391 389 1
E 392 136 1
E 392 264 1
E 392 388 1
E 392 390 1
E 392 391 1
E 393 137 1
E 393 265 1
E 393 385 1
E 394 138 1
E 394 266 1
E 394 386 1
E 394 393 1
E 395 139 1
E 395 267 1
E 395 387 1
E 395 393 1
E 396 140 1
E 396 268 1
E 396 388 1
E 396 394 1
E 396 395 1
E 397 141 1
E 397 269 1
E 397 389 1
E 397 393 1
E 398 142 1
E 398 270 1
E 398 390 1
E 398 394 1
E 398 397 1
E 399 143 1
E 399 271 1
E 399 391 1
E 399 395 1
E 399 397 1
E 400 144 1
E 400 272 1
E 400 392 1
E 400 396 1
E 400 398 1
E 400 399 1
E 401 145 1
E 401 273 1
E 401 385 1
E 402 146 1
E 402 274 1
E 402 386 1
E 402 401 1
E 403 147 1
E 403 275 1
E 403 387 1
E 403 401 1
E 404 148 1
E 404 276 1
E 404 388 1
E 404 402 1
E 404 403 1
E 405 149 1
E 405 277 1
E 405 389 1
E 405 401 1
E 406 150 1
E 406 278 1
E 406 390 1
E 406 402 1
E 406 405 1
E 407 151 1
E 407 279 1
E 407 391 1
E 407 403 1
E 407 405 1
E 408 152 1
E 408 280 1
E 408 392 1
E 408 404 1
E 408 406 1
E 408 407 1
E 409 153 1
E 409 281 1
E 409 393 1
E 409 401 1
E 410 154 1
E 410 282 1
E 410 394 1
E 410 402 1
E 410 409 1
E 411 155 1
E 411 283 1
E 411 395 1
E 411 403 1
E 411 409 1
E 412 156 1
E 412 284 1
E 412 396 1
E 412 404 1
E 412 410 1
E 412 411 1
E 413 157 1
E 413 285 1
E 413 397 1
E 413 405 1
E 413 409 1
E 414 158 1
E 414 286 1
E 414 398 1
E 414 406 1
E 414 410 1
E 414 413 1
E 415 159 1
E 415 287 1
E 415 399 1
E 415 407 1
E 415 411 1
E 415 413 1
E 416 160 1
E 416 288 1
E 416 400 1
E 416 408 1
E 416 412 1
E 416 414 1
E 416 415 1
E 417 161 1
E 417 289 1
E 417 385 1
E 418 162 1
E 418 290 1
E 418 386 1
E 418 417 1
E 419 163 1
E 419 291 1
E 419 387 1
E 419 417 1
E 420 164 1
E 420 292 1
E 420 388 1
E 420 418 1
E 420 419 1
E 421 165 1
E 421 293 1
E 421 389 1
E 421 417 1
E 422 166 1
E 422 294 1
E 422 390 1
E 422 418 1
E 422 421 1
E 423 167 1
E 423 295 1
E 423 391 1
E 423 419 1
E 423 421 1
E 424 168 1
E 424 296 1
E 424 392 1
E 424 420 1
E 424 422 1
E 424 423 1
E 425 169 1
E 425 297 1
E 425 393 1
E 425 417 1
E 426 170 1
E 426 298 1
E 426 394 1
E 426 418 1
E 426 425 1
E 427 171 1
E 427 299 1
E 427 395 1
E 427 419 1
E 427 425 1
E 428 172 1
E 428 300 1
E 428 396 1
E 428 420 1
E 428 426 1
E 428 427 1
E 429 173 1
E 429 301 1
E 429 397 1
E 429 421 1
E 429 425 1
E 430 174 1
E 430 302 1
E 430 398 1
E 430 422 1
E 430 426 1
E 430 429 1
E 431 175 1
E 431 303 1
E 431 399 1
E 431 423 1
E 431 427 1
E 431 429 1
E 432 176 1
E 432 304 1
E 432 400 1
E 432 424 1
E 432 428 1
E 432 430 1
E 432 431 1
E 433 177 1
E 433 305 1
E 433 401 1
E 433 417 1
E 434 178 1
E 434 306 1
E 434 402 1
E 434 418 1
E 434 433 1
E 435 179 1
E 435 307 1
E 435 403 1
E 435 419 1
E 435 433 1
E 436 180 1
E 436 308 1
E 436 404 1
E 436 420 1
E 436 434 1
E 436 435 1
E 437 181 1
E 437 309 1
E 437 405 1
E 437 421 1
E 437 433 1
E 438 182 1
E 438 310 1
E 438 406 1
E 438 422 1
E 438 434 1
E 438 437 1
E 439 183 1
E 439 311 1
E 439 407 1
E 439 423 1
E 439 435 1
E 439 437 1
E 440 184 1
E 440 312 1
E 440 408 1
E 440 424 1
E 440 436 1
E 440 438 1
E 440 439 1
E 441 185 1
E 441 313 1
E 441 409 1
E 441 425 1
E 441 433 1
E 442 186 1
E 442 314 1
E 442 410 1
E 442 426 1
E 442 434 1
E 442 441 1
E 443 187 1
E 443 315 1
E 443 411 1
E 443 427 1
E 443 435 1
E 443 441 1
E 444 188 1
E 444 316 1
E 444 412 1
E 444 428 1
E 444 436 1
E 444 442 1
E 444 443 1
E 445 189 1
E 445 317 1
E 445 413 1
E 445 429 1
E 445 437 1
E 445 441 1
E 446 190 1
E 446 318 1
E 446 414 1
E 446 430 1
E 446 438 1
E 446 442 1
E 446 445 1
E 447 191 1
E 447 319 1
E 447 415 1
E 447 431 1
E 447 439 1
E 447 443 1
E 447 445 1
E 448 192 1
E 448 320 1
E 448 416 1
E 448 432 1
E 448 440 1
E 448 444 1
E 448 446 1
E 448 447 1
E 449 193 1
E 449 321 1
E 449 385 1
E 450 194 1
E 450 322 1
E 450 386 1
E 450 449 1
E 451 195 1
E 451 323 1
E 451 387 1
E 451 449 1
E 452 196 1
E 452 324 1
E 452 388 1
E 452 450 1
E 452 451 1
E 453 197 1
E 453 325 1
E 453 389 1
E 453 449 1
E 454 198 1
E 454 326 1
E 454 390 1
E 454 450 1
E 454 453 1
E 455 199 1
E 455 327 1
E 455 391 1
E 455 451 1
E 455 453 1
E 456 200 1
E 456 328 1
E 456 392 1
E 456 452 1
E 456 454 1
E 456 455 1
E 457 201 1
E 457 329 1
E 457 393 1
E 457 449 1
E 458 202 1
E 458 330 1
E 458 394 1
E 458 450 1
E 458 457 1
E 459 203 1
E 459 331 1
E 459 395 1
E 459 451 1
E 459 457 1
E 460 204 1
E 460 332 1
E 460 396 1
E 460 452 1
E 460 458 1
E 460 459 1
E 461 205 1
E 461 333 1
E 461 397 1
E 461 453 1
E 461 457 1
E 462 206 1
E 462 334 1
E 462 398 1
E 462 454 1
E 462 458 1
E 462 461 1
E 463 207 1
E 463 335 1
E 463 399 1
E 463 455 1
E 463 459 1
E 463 461 1
E 464 208 1
E 464 336 1
E 464 400 1
E 464 456 1
E 464 460 1
E 464 462 1
E 464 463 1
E 465 209 1
E 465 337 1
E 465 401 1
E 465 449 1
E 466 210 1
E 466 338 1
E 466 402 1
E 466 450 1
E 466 465 1
E 467 211 1
E 467 339 1
E 467 403 1
E 467 451 1
E 467 465 1
E 468 212 1
E 468 340 1
E 468 404 1
E 468 452 1
E 468 466 1
E 468 467 1
E 469 213 1
E 469 341 1
E 469 405 1
E 469 453 1
E 469 465 1
E 470 214 1
E 470 342 1
E 470 406 1
E 470 454 1
E 470 466 1
E 470 469 1
E 471 215 1
E 471 343 1
E 471 407 1
E 471 455 1
E 471 467 1
E 471 469 1
E 472 216 1
E 472 344 1
E 472 408 1
E 472 456 1
E 472 468 1
E 472 470 1
E 472 471 1
E 473 217 1
E 473 345 1
E 473 409 1
E 473 457 1
E 473 465 1
E 474 218 1
E 474 346 1
E 474 410 1
E 474 458 1
E 474 466 1
E 474 473 1
E 475 219 1
E 475 347 1
E 475 411 1
E 475 459 1
E 475 467 1
E 475 473 1
E 476 220 1
E 476 348 1
E 476 412 1
E 476 460 1
E 476 468 1
E 476 474 1
E 476 475 1
E 477 221 1
E 477 349 1
E 477 413 1
E 477 461 1
E 477 469 1
E 477 473 1
E 478 222 1
E 478 350 1
E 478 414 1
E 478 462 1
E 478 470 1
E 478 474 1
E 478 477 1
E 479 223 1
E 479 351 1
E 479 415 1
E 479 463 1
E 479 471 1
E 479 475 1
E 479 477 1
E 480 224 1
E 480 352 1
E 480 416 1
E 480 464 1
E 480 472 1
E 480 476 1
E 480 478 1
E 480 479 1
E 481 225 1
E 481 353 1
E 481 417 1
E 481 449 1
E 482 226 1
E 482 354 1
E 482 418 1
E 482 450 1
E 482 481 1
E 483 227 1
E 483 355 1
E 483 419 1
E 483 451 1
E 483 481 1
E 484 228 1
E 484 356 1
E 484 420 1
E 484 452 1
E 484 482 1
E 484 483 1
E 485 229 1
E 485 357 1
E 485 421 1
E 485 453 1
E 485 481 1
E 486 230 1
E 486 358 1
E 486 422 1
E 486 454 1
E 486 482 1
E 486 485 1
E 487 231 1
E 487 359 1
E 487 423 1
E 487 455 1
E 487 483 1
E 487 485 1
E 488 232 1
E 488 360 1
E 488 424 1
E 488 456 1
E 488 484 1
E 488 486 1
E 488 487 1
E 489 233 1
E 489 361 1
E 489 425 1
E 489 457 1
E 489 481 1
E 490 234 1
E 490 362 1
E 490 426 1
E 490 458 1
E 490 482 1
E 490 489 1
E 491 235 1
E 491 363 1
E 491 427 1
E 491 459 1
E 491 483 1
E 491 489 1
E 492 236 1
E 492 364 1
E 492 428 1
E 492 460 1
E 492 484 1
E 492 490 1
E 492 491 1
E 493 237 1
E 493 365 1
E 493 429 1
E 493 461 1
E 493 485 1
E 493 489 1
E 494 238 1
E 494 366 1
E 494 430 1
E 494 462 1
E 494 486 1
E 494 490 1
E 494 493 1
E 495 239 1
E 495 367 1
E 495 431 1
E 495 463 1
E 495 487 1
E 495 491 1
E 495 493 1
E 496 240 1
E 496 368 1
E 496 432 1
E 496 464 1
E 496 488 1
E 496 492 1
E 496 494 1
E 496 495 1
E 497 241 1
E 497 369 1
E 497 433 1
E 497 465 1
E 497 481 1
E 498 242 1
E 498 370 1
E 498 434 1
E 498 466 1
E 498 482 1
E 498 497 1
E 499 243 1
E 499 371 1
E 499 435 1
E 499 467 1
E 499 483 1
E 499 497 1
E 500 244 1
E 500 372 1
E 500 436 1
E 500 468 1
E 500 484 1
E 500 498 1
E 500 499 1
E 501 245 1
E 501 373 1
E 501 437 1
E 501 469 1
E 501 485 1
E 501 497 1
E 502 246 1
E 502 374 1
E 502 438 1
E 502 470 1
E 502 486 1
E 502 498 1
E 502 501 1
E 503 247 1
E 503 375 1
E 503 439 1
E 503 471 1
E 503 487 1
E 503 499 1
E 503 501 1
E 504 248 1
E 504 376 1
E 504 440 1
E 504 472 1
E 504 488 1
E 504 500 1
E 504 502 1
E 504 503 1
E 505 249 1
E 505 377 1
E 505 441 1
E 505 473 1
E 505 489 1
E 505 497 1
E 506 250 1
E 506 378 1
E 506 442 1
E 506 474 1
E 506 490 1
E 506 498 1
E 506 505 1
E 507 251 1
E 507 379 1
E 507 443 1
E 507 475 1
E 507 491 1
E 507 499 1
E 507 505 1
E 508 252 1
E 508 380 1
E 508 444 1
E 508 476 1
E 508 492 1
E 508 500 1
E 508 506 1
E 508 507 1
E 509 253 1
E 509 381 1
E 509 445 1
E 509 477 1
E 509 493 1
E 509 501 1
E 509 505 1
E 510 254 1
E 510 382 1
E 510 446 1
E 510 478 1
E 510 494 1
E 510 502 1
E 510 506 1
E 510 509 1
E 511 255 1
E 511 383 1
E 511 447 1
E 511 479 1
E 511 495 1
E 511 503 1
E 511 507 1
E 511 509 1
E 512 256 1
E 512 384 1
E 512 448 1
E 512 480 1
E 512 496 1
E 512 504 1
E 512 508 1
E 512 510 1
E 512 511 1
END

SECTION Terminals
Terminals 64
TP 12 2
TP 15 2
TP 18 1
TP 22 2
TP 41 1
TP 48 2
TP 50 2
TP 55 2
TP 65 2
TP 72 1
TP 91 2
TP 93 1
TP 99 1
TP 102 2
TP 124 1
TP 125 2
TP 131 1
TP 142 2
TP 151 1
TP 153 2
TP 164 1
TP 165 1
TP 187 1
TP 190 1
TP 197 1
TP 202 1
TP 212 1
TP 224 2
TP 234 1
TP 239 2
TP 241 1
TP 248 1
TP 261 2
TP 265 1
TP 275 1
TP 288 2
TP 290 1
TP 301 2
TP 312 1
TP 315 1
TP 324 2
TP 334 2
TP 343 2
TP 346 2
TP 359 2
TP 364 1
TP 369 1
TP 382 2
TP 386 1
TP 392 1
TP 412 1
TP 413 1
TP 419 1
TP 432 2
TP 437 2
TP 442 1
TP 459 2
TP 463 2
TP 465 2
TP 470 1
TP 486 1
TP 489 1
TP 500 2
TP 511 1
END

EOF
